#p external='./gxdmopt.sh' opt=nomicro

title

0 1
C	1.550000 -0.900000 0.000000
O	1.550000 0.259600 0.000000
O	1.550000 -2.059600 0.000000
C	-1.550000 0.900000 0.000000
O	-1.550000 -0.259600 0.000000
O	-1.550000 2.059600 0.000000

