# external='./gxdmopt_dz.sh' opt=nomicro 

title

0 1
C     1.109882   -1.344582    0.000000 
O     2.255409   -1.127306    0.000000 
O    -0.036542   -1.570343    0.000000 
N    -1.182527    1.337759    0.000000 
O     0.000000    1.495618    0.000000 
N    -2.304648    1.188489    0.000000 

