#p external='./gxdmopt.sh' opt=nomicro

title

0 2
C   -1.732300    0.000000    0.000004
H   -1.364057    0.894551    0.516300
H   -1.364057   -0.894551    0.516300
H   -1.364776    0.000000   -1.033104
H   -3.028890    0.000000    0.000499
C    2.525895    0.000000   -0.000004
H    2.520047    0.941765   -0.543723
H    2.520047   -0.941765   -0.543723
H    2.520113    0.000000    1.087445

