%nprocs=4
%mem=2GB
#p lc-wpbe/aug-cc-pvtz int=(grid=ultrafine) output=wfx

title

0 1
C	0.000000 -0.000140 1.859161
H	-0.888551 0.513060 1.494685
H	0.888551 0.513060 1.494685
H	0.000000 -1.026339 1.494868
H	0.000000 0.000089 2.948284
C	0.000000 0.000140 -1.859161
H	0.000000 -0.000089 -2.948284
H	-0.888551 -0.513060 -1.494685
H	0.888551 -0.513060 -1.494685
H	0.000000 1.026339 -1.494868

ch4_ch4_manual.wfx

